70 5530633
2 21 69 38 3 46 48 10 58 50 32 44 14 13 60 20 56 57 12 8 30 37 54 42 18 23 31 59 17 66 29 43 68 24 7 45 9 35 51 26 5 40 1 25 62 33 27 64 55 49 28 11 70 16 61 47 65 63 22 67 19 15 52 6 41 36 53 4 34 39 
